Route #1: 0 67 58 53 27 4 30 74 28 22 64 62 2 68 0
Route #2: 0 75 17 6 1 61 45 52 46 19 14 38 10 26 0
Route #3: 0 40 9 16 63 23 43 42 47 71 60 20 37 29 57 54 8 34 0
Route #4: 0 7 11 13 15 5 48 36 21 73 33 51 49 24 44 39 72 12 0
Route #5: 0 70 69 41 56 3 32 50 18 55 25 31 65 66 59 35 0
Cost 1053:
